c Sudoku solution
p cnf 729 0
125 0
189 0
197 0
217 0
248 0
262 0
349 0
383 0
413 0
437 0
459 0
471 0
524 0
576 0
626 0
635 0
661 0
716 0
733 0
223 0
239 0
847 0
852 0
891 0
281 0
918 0
815 0
829 0
834 0
951 0
721 0
932 0
927 0
141 0
966 0
769 0
886 0
446 0
985 0
873 0
868 0
943 0
755 0
744 0
642 0
545 0
464 0
495 0
619 0
599 0
693 0
684 0
365 0
357 0
658 0
567 0
553 0
677 0
163 0
275 0
787 0
979 0
994 0
296 0
254 0
156 0
138 0
336 0
311 0
114 0
322 0
172 0
398 0
374 0
512 0
531 0
428 0
482 0
588 0
778 0
792 0
